SAT
-96 49 -41 -146 -162 -94 -50 -14 -151 -155 132 82 -45 -165 100 111 -71 -22 88 131 32 76 -105 77 -3 175 -121 70 -37 7 -21 109 124 -92 -56 161 4 28 145 -64 81 -103 -59 -134 107 72 142 44 55 48 164 -63 98 160 108 -79 -114 -83 -115 172 66 -106 -163 -47 -51 133 -112 149 -13 -135 84 53 130 156 65 118 129 39 116 -11 104 -67 52 -89 34 -125 -87 68 80 -123 -120 43 117 -15 -69 -60 144 78 -17 -93 -75 -46 99 101 140 16 27 -95 -20 -1 -152 97 61 -74 169 148 -110 174 -10 -36 -42 119 166 -173 -159 57 26 150 -86 -35 -62 138 -147 -143 168 -137 -91 18 38 25 -30 58 -136 -2 -141 -54 -139 -24 -40 -157 171 167 -29 -73 -90 158 -12 -6 -127 -33 -9 102 -113 -8 19 -31 153 -128 -170 85 -126 -23 122 5 -154 0
